(set-option :produce-models true)
(set-logic QF_UF)
(declare-fun p100() Bool)
(declare-fun p83() Bool)
(declare-fun p76() Bool)
(declare-fun p33() Bool)
(declare-fun p70() Bool)
(declare-fun p115() Bool)
(declare-fun p5() Bool)
(declare-fun p42() Bool)
(declare-fun p97() Bool)
(declare-fun p99() Bool)
(declare-fun p103() Bool)
(declare-fun p8() Bool)
(declare-fun p6() Bool)
(declare-fun p65() Bool)
(declare-fun p1() Bool)
(declare-fun p107() Bool)
(declare-fun p22() Bool)
(declare-fun p78() Bool)
(declare-fun p95() Bool)
(declare-fun p69() Bool)
(declare-fun p9() Bool)
(declare-fun p13() Bool)
(declare-fun p102() Bool)
(declare-fun p66() Bool)
(declare-fun p29() Bool)
(declare-fun p60() Bool)
(declare-fun p56() Bool)
(declare-fun p25() Bool)
(declare-fun p108() Bool)
(declare-fun p74() Bool)
(declare-fun p112() Bool)
(declare-fun p21() Bool)
(declare-fun p89() Bool)
(declare-fun p93() Bool)
(declare-fun p59() Bool)
(declare-fun p24() Bool)
(declare-fun p4() Bool)
(declare-fun p73() Bool)
(declare-fun p20() Bool)
(declare-fun p92() Bool)
(declare-fun p11() Bool)
(declare-fun p96() Bool)
(declare-fun p104() Bool)
(declare-fun p87() Bool)
(declare-fun p81() Bool)
(declare-fun p91() Bool)
(declare-fun p23() Bool)
(declare-fun p68() Bool)
(declare-fun p30() Bool)
(declare-fun p90() Bool)
(declare-fun p72() Bool)
(declare-fun p85() Bool)
(declare-fun p113() Bool)
(declare-fun p34() Bool)
(declare-fun p27() Bool)
(declare-fun p47() Bool)
(declare-fun p40() Bool)
(declare-fun p114() Bool)
(declare-fun p64() Bool)
(declare-fun p110() Bool)
(declare-fun p51() Bool)
(declare-fun p49() Bool)
(declare-fun p45() Bool)
(declare-fun p94() Bool)
(declare-fun p101() Bool)
(declare-fun p109() Bool)
(declare-fun p15() Bool)
(declare-fun p44() Bool)
(declare-fun p119() Bool)
(declare-fun p62() Bool)
(declare-fun p31() Bool)
(declare-fun p75() Bool)
(declare-fun p61() Bool)
(declare-fun p80() Bool)
(declare-fun p12() Bool)
(declare-fun p105() Bool)
(declare-fun p46() Bool)
(declare-fun p79() Bool)
(declare-fun p98() Bool)
(declare-fun p118() Bool)
(declare-fun p57() Bool)
(declare-fun p38() Bool)
(declare-fun p48() Bool)
(declare-fun p86() Bool)
(declare-fun p17() Bool)
(declare-fun p18() Bool)
(declare-fun p55() Bool)
(declare-fun p7() Bool)
(declare-fun p117() Bool)
(declare-fun p26() Bool)
(declare-fun p50() Bool)
(declare-fun p3() Bool)
(declare-fun p71() Bool)
(declare-fun p28() Bool)
(declare-fun p54() Bool)
(declare-fun p67() Bool)
(declare-fun p39() Bool)
(declare-fun p35() Bool)
(declare-fun p41() Bool)
(declare-fun p106() Bool)
(declare-fun p37() Bool)
(declare-fun p14() Bool)
(declare-fun p111() Bool)
(declare-fun p2() Bool)
(declare-fun p10() Bool)
(declare-fun p19() Bool)
(declare-fun p52() Bool)
(declare-fun p77() Bool)
(declare-fun p63() Bool)
(declare-fun p84() Bool)
(declare-fun p32() Bool)
(declare-fun p58() Bool)
(declare-fun p116() Bool)
(declare-fun p53() Bool)
(declare-fun p0() Bool)
(declare-fun p16() Bool)
(declare-fun p43() Bool)
(declare-fun p82() Bool)
(declare-fun p36() Bool)
(declare-fun p88() Bool)
(assert
(and (or (not p100) p83 p76) (or (not p33) (not p70) (not p115)) (or p5 (not p42) p97) (or (not p99) p103 (not p8)) (or p6 (not p65) (not p1)) (or (not p107) p22 p78) (or (not p95) (not p69) p9) (or (not p13) p102 p66) (or (not p29) p60 (not p70)) (or p56 (not p25) (not p108)) (or p74 (not p112) p69) (or p21 p66 p89) (or (not p93) p59 p24) (or p4 (not p89) (not p74)) (or p100 (not p24) (not p73)) (or (not p65) (not p1) p20) (or (not p92) p11 p96) (or p104 (not p87) p1) (or (not p20) (not p81) p91) (or p23 p68 (not p107)) (or p30 (not p20) (not p115)) (or (not p74) (not p89) p108) (or (not p104) (not p90) (not p72)) (or p68 (not p85) (not p113)) (or (not p102) (not p34) p27) (or (not p47) (not p40) (not p68)) (or (not p114) p64 p110) (or p51 (not p49) p45) (or (not p23) p94 p4) (or (not p112) p101 p83) (or (not p109) (not p83) (not p22)) (or (not p15) p42 p44) (or (not p65) (not p59) (not p119)) (or (not p62) p40 (not p97)) (or p110 p30 p73) (or p22 (not p20) (not p21)) (or (not p31) p70 (not p75)) (or p75 p70 (not p110)) (or p61 (not p80) p75) (or (not p12) (not p9) (not p105)) (or (not p46) p79 (not p98)) (or (not p118) p93 (not p109)) (or p57 p40 (not p60)) (or (not p47) (not p91) (not p38)) (or (not p48) p60 (not p40)) (or p59 (not p86) (not p17)) (or p59 p109 p18) (or (not p61) (not p101) p55) (or p7 (not p100) p110) (or (not p117) (not p7) p102) (or p26 (not p68) (not p44)) (or (not p47) p103 (not p50)) (or (not p85) p95 p29) (or p72 p18 p94) (or (not p61) p3 (not p97)) (or (not p48) p44 p87) (or p72 (not p12) (not p94)) (or (not p71) (not p103) (not p119)) (or p70 p115 p118) (or (not p24) (not p105) (not p65)) (or p68 (not p28) p54) (or (not p87) p25 p85) (or p67 (not p34) p85) (or p39 p100 (not p35)) (or (not p40) p11 (not p48)) (or (not p118) (not p65) (not p114)) (or p119 (not p47) p26) (or p47 (not p78) p25) (or p35 (not p55) p91) (or (not p83) (not p28) p30) (or p15 (not p103) (not p41)) (or (not p89) (not p71) (not p81)) (or (not p96) p24 (not p3)) (or p67 p106 (not p99)) (or p104 (not p108) (not p107)) (or p98 p85 p37) (or (not p44) p14 (not p12)) (or p93 p21 p42) (or p85 p62 (not p111)) (or (not p34) (not p80) p118) (or (not p2) (not p10) p17) (or p3 (not p19) p52) (or p6 p65 (not p20)) (or p42 p100 p7) (or (not p108) (not p52) (not p27)) (or (not p38) (not p49) (not p62)) (or p115 (not p62) (not p60)) (or (not p1) p52 p60) (or (not p25) (not p35) (not p77)) (or (not p12) p108 (not p68)) (or (not p80) p63 p84) (or p91 (not p55) p94) (or (not p15) (not p34) (not p76)) (or (not p32) p46 p104) (or p9 p58 (not p63)) (or p86 (not p50) (not p101)) (or (not p118) (not p103) p84) (or (not p70) (not p3) p55) (or (not p62) p55 p105) (or p80 (not p18) p1) (or (not p52) p38 (not p22)) (or (not p41) (not p54) (not p57)) (or p105 p93 (not p48)) (or (not p72) (not p12) (not p46)) (or p7 (not p52) (not p22)) (or p11 (not p107) (not p115)) (or p116 p119 p23) (or (not p89) p115 (not p11)) (or p109 p95 p74) (or p96 p115 (not p42)) (or (not p119) (not p53) (not p84)) (or p110 (not p12) p61) (or p25 p49 (not p13)) (or (not p63) p46 p85) (or p46 p52 (not p33)) (or p29 p81 (not p46)) (or (not p86) p109 (not p9)) (or (not p22) p113 (not p23)) (or p9 p55 (not p110)) (or (not p27) p89 p68) (or p46 (not p34) (not p3)) (or p89 (not p85) (not p113)) (or p84 p8 (not p108)) (or p0 p40 (not p72)) (or p12 p28 (not p9)) (or p63 (not p39) p48) (or p54 (not p23) p78) (or (not p0) p16 p101) (or (not p29) (not p81) (not p71)) (or p41 p114 p87) (or (not p62) (not p108) (not p98)) (or (not p47) (not p91) p25) (or p103 (not p97) (not p47)) (or p39 (not p7) p35) (or (not p16) (not p96) (not p5)) (or (not p55) p4 p44) (or (not p104) (not p102) (not p111)) (or p89 (not p53) (not p111)) (or (not p79) p21 p75) (or p7 p1 p43) (or p111 p97 p5) (or p95 (not p34) (not p28)) (or p29 p46 p29) (or (not p19) p111 p17) (or (not p40) p55 (not p86)) (or p92 (not p85) p23) (or (not p69) p114 p100) (or p3 p82 p2) (or (not p105) p32 (not p44)) (or p78 p46 (not p14)) (or (not p24) (not p98) (not p36)) (or (not p89) p71 p11) (or (not p58) (not p86) p86) (or (not p99) p19 (not p88)) (or p109 p66 (not p59)) (or (not p84) p23 (not p82)) (or p33 (not p102) p105) (or p32 (not p105) (not p16)) (or (not p75) (not p29) (not p16)) (or (not p26) p58 (not p47)) (or (not p51) (not p16) (not p13)) (or (not p3) (not p92) p29) (or (not p50) p1 p40) (or (not p39) (not p110) p29) (or p0 p82 p67) (or (not p19) (not p43) p41) (or (not p112) p18 (not p10)) (or p88 (not p99) (not p56)) (or (not p30) p58 (not p26)) (or p105 p44 p12) (or p110 p115 p100) (or p10 (not p76) p50) (or (not p54) (not p18) p49) (or (not p93) (not p48) p93) (or (not p58) p47 p38) (or p85 p75 (not p12)) (or (not p107) (not p53) p47) (or (not p7) p84 (not p36)) (or (not p110) p102 p12) (or p64 (not p74) p111) (or (not p47) p63 p55) (or (not p104) (not p68) p110) (or p23 p51 p96) (or p80 p1 p110) (or (not p49) p18 p96) (or (not p61) (not p5) (not p86)) (or (not p73) p50 p5) (or (not p33) (not p49) p105) (or (not p64) (not p20) p97) (or (not p23) (not p30) p68) (or (not p95) p95 p7) (or (not p72) p68 (not p103)) (or (not p12) (not p22) p41) (or (not p97) p3 p13) (or p8 (not p83) p71) (or p52 (not p86) (not p80)) (or (not p34) p95 p12) (or p87 p94 (not p102)) (or p36 p112 p21) (or p56 (not p92) (not p76)) (or (not p29) (not p14) p98) (or p0 (not p51) (not p6)) (or (not p22) (not p28) (not p109)) (or p46 (not p15) p76) (or p45 (not p109) (not p27)) (or (not p71) (not p96) p80) (or (not p82) p114 p11) (or (not p73) p21 p116) (or (not p7) p89 (not p117)) (or p75 (not p62) p9) (or (not p23) p52 p66) (or p88 p37 p43) (or p37 p80 (not p22)) (or p49 p95 (not p4)) (or p32 p13 p64) (or p68 p117 p40) (or p47 (not p3) p94) (or (not p19) (not p93) p7) (or p115 (not p59) p13) (or (not p5) p113 p105) (or p31 p35 (not p35)) (or (not p24) p28 p33) (or (not p28) (not p50) p113) (or (not p102) (not p81) p41) (or p2 (not p63) (not p64)) (or (not p111) (not p107) p42) (or p91 (not p4) (not p60)) (or p10 (not p96) (not p6)) (or (not p50) p2 p32) (or p104 p93 p119) (or p49 p102 (not p48)) (or p82 (not p13) (not p22)) (or p66 (not p75) p117) (or (not p97) p7 (not p65)) (or p33 p116 p83) (or (not p69) p47 (not p93)) (or p49 p70 (not p102)) (or p73 p6 (not p105)) (or p114 p44 p72) (or p27 (not p58) (not p116)) (or p119 p71 (not p100)) (or (not p53) p64 p106) (or p51 p32 (not p77)) (or (not p79) p112 p0) (or p94 p110 p46) (or (not p13) (not p68) (not p18)) (or (not p7) (not p77) p102) (or (not p48) p45 (not p116)) (or (not p64) (not p29) p51) (or p82 (not p72) p47) (or p23 p26 p39) (or p11 p107 p21) (or p24 (not p117) p78) (or p102 p109 p58) (or (not p102) (not p58) (not p89)) (or p119 (not p103) p10) (or p115 p96 p94) (or p7 p34 p26) (or p111 p26 p59) (or (not p53) (not p23) p45) (or p60 p105 (not p3)) (or (not p10) (not p2) p55) (or (not p10) p103 (not p113)) (or (not p19) p64 (not p65)) (or p111 (not p64) p77) (or p88 (not p12) (not p57)) (or (not p13) p31 (not p57)) (or (not p28) (not p39) p40) (or (not p78) (not p56) (not p22)) (or p80 (not p70) (not p37)) (or (not p94) p33 (not p1)) (or (not p7) p68 p56) (or p56 (not p2) p48) (or (not p80) (not p22) p115) (or p62 p23 p71) (or p81 p110 p18) (or (not p72) p68 (not p82)) (or (not p48) (not p62) (not p47)) (or (not p33) p47 (not p56)) (or p81 p119 (not p32)) (or p89 p59 p101) (or p61 p25 p10) (or (not p81) (not p65) (not p1)) (or (not p63) p68 (not p50)) (or (not p55) p31 (not p51)) (or p111 (not p111) p11) (or (not p18) (not p91) (not p58)) (or (not p88) p81 (not p76)) (or (not p74) p69 p87) (or (not p112) (not p50) p63) (or p79 (not p57) p63) (or p73 p47 p15) (or (not p28) p79 (not p103)) (or (not p89) p67 (not p59)) (or p27 p41 (not p10)) (or (not p87) p50 (not p1)) (or p114 (not p70) p70) (or p98 p77 p114) (or (not p52) (not p74) p36) (or (not p48) p84 p42) (or p80 p105 p32) (or p14 p117 (not p31)) (or p65 p21 p59) (or (not p40) (not p88) (not p84)) (or (not p5) (not p15) (not p21)) (or p24 p27 p48) (or (not p76) (not p52) p44) (or p19 p115 p63) (or (not p45) p48 p78) (or p22 (not p16) p4) (or (not p57) p47 (not p64)) (or (not p106) (not p77) (not p31)) (or p53 (not p97) p94) (or p97 p93 (not p75)) (or (not p37) (not p6) (not p20)) (or (not p45) (not p64) p20) (or p42 p22 (not p47)) (or (not p5) (not p29) (not p65)) (or (not p43) (not p73) p18) (or (not p37) (not p58) (not p13)) (or p11 p33 (not p46)) (or (not p11) (not p31) p39) (or (not p105) (not p75) (not p101)) (or p51 p13 p64) (or (not p6) (not p31) p74) (or (not p17) p115 p86) (or p66 (not p62) p41) (or (not p73) p8 p106) (or p47 (not p68) p70) (or p106 (not p39) p111) (or p19 (not p16) p8) (or p36 (not p41) p110) (or (not p66) p20 (not p78)) (or (not p104) (not p61) (not p92)) (or p88 p27 (not p40)) (or p35 p49 p53) (or p18 (not p9) p6) (or (not p10) p44 (not p101)) (or (not p0) p51 p1) (or (not p8) p116 p17) (or p114 (not p21) p15) (or p107 (not p24) p112) (or p36 (not p16) (not p100)) (or p80 (not p60) (not p14)) (or (not p1) (not p108) (not p11)) (or (not p89) p0 p8) (or p79 (not p108) p86) (or (not p97) (not p65) (not p102)) (or (not p83) (not p84) (not p23)) (or p54 (not p83) p96) (or p78 (not p71) (not p100)) (or p9 (not p39) p104) (or (not p67) p24 (not p17)) (or p118 (not p30) p60) (or (not p72) (not p110) p16) (or p62 p28 p78) (or (not p45) (not p39) (not p15)) (or (not p117) (not p6) (not p44)) (or p48 p90 p80) (or p70 p92 p96) (or p56 (not p19) p55) (or p5 (not p53) p38) (or (not p111) (not p86) p0) (or p68 p42 (not p41)) (or p97 (not p77) p110) (or (not p33) p20 (not p55)) (or (not p70) p56 p45) (or p28 p77 p61) (or p3 (not p101) p40) (or (not p97) (not p20) p30) (or (not p8) p33 (not p33)) (or (not p3) p5 (not p52)) (or (not p51) p110 p39) (or p42 (not p18) (not p44)) (or p70 p72 p46) (or (not p79) (not p96) p95) (or (not p96) (not p8) p111) (or p33 p29 (not p59)) (or (not p35) (not p96) p99) (or p112 p21 p93) (or (not p55) p62 (not p71)) (or p12 p13 p114) (or p47 (not p50) (not p59)) (or (not p1) (not p100) p25) (or (not p29) p16 (not p26)) (or p117 (not p99) p91) (or p48 (not p53) (not p109)) (or p30 p80 p106) (or p6 (not p82) p83) (or (not p83) p16 p58) (or (not p36) (not p11) (not p53)) (or p18 p3 (not p16)) (or p99 (not p114) p54) (or (not p78) p45 p10) (or p83 (not p118) p32) (or p116 p52 p119) (or p65 (not p64) (not p116)) (or (not p63) p117 (not p108)) (or p104 p56 p78) (or (not p54) (not p87) (not p98)) (or (not p60) (not p79) (not p79)) (or (not p34) p57 p6) (or (not p55) p96 (not p73)) (or (not p10) p24 (not p78)) (or (not p43) p65 (not p76)) (or (not p57) (not p112) (not p62)) (or (not p66) p73 p4) (or p3 (not p37) (not p56)) (or p30 (not p48) (not p64)) (or p6 p57 p114) (or (not p45) (not p84) (not p110)) (or p101 p80 p36) (or (not p98) p97 p97) (or p84 p88 p85) (or (not p33) (not p46) p5) (or (not p88) (not p78) (not p20)) (or p5 (not p18) p53) (or p66 p58 (not p32)) (or p53 p13 (not p7)) (or (not p119) p70 p115) (or p53 p28 p96) (or (not p38) (not p110) (not p67)) (or p103 p116 (not p3)) (or p48 (not p9) (not p68)) (or (not p43) p83 (not p39)) (or (not p114) (not p8) (not p110)) (or (not p18) p70 (not p13)) (or (not p56) p58 (not p83)) (or p14 p105 p82) (or p53 p36 (not p32)) (or p25 (not p31) (not p56)) (or p102 p42 (not p39)) (or (not p90) p82 (not p103)) (or (not p48) (not p93) p107) (or p17 (not p38) (not p93)) (or p97 (not p84) (not p97)) (or p16 p97 (not p50)) (or (not p19) p31 (not p73)) (or p44 (not p31) (not p33)) (or p71 p63 (not p12)) (or (not p23) (not p73) (not p16)) (or p115 p96 (not p87)) (or p9 (not p30) (not p84)) (or p11 (not p117) p33) (or p56 p87 p19) (or (not p98) p71 p77) (or (not p65) p7 (not p85)) (or (not p107) p79 p102) (or p104 (not p52) (not p80)) (or p99 (not p78) p119) (or p59 (not p8) (not p11)) (or (not p101) p42 p59) (or p118 p1 (not p52)) (or (not p41) (not p34) (not p91)) (or (not p72) p0 p61) (or (not p21) p74 p34) (or p117 (not p42) p102) (or p3 (not p101) (not p7)) (or p2 p41 p51) (or p68 (not p17) (not p82)) (or p84 (not p4) p14) (or (not p38) p13 p118) (or (not p6) (not p112) (not p109)) (or (not p63) (not p100) (not p96)) (or p80 p50 (not p100)) (or p79 (not p68) p103) (or p58 p55 (not p88)) (or p90 (not p74) (not p33)) (or p60 p90 p83) (or p99 p60 (not p34)) (or p49 (not p80) p72) (or p72 p10 p70) (or p39 (not p86) p28) (or p109 p61 p63) (or p3 (not p114) p49) (or (not p48) (not p72) p22) (or (not p92) (not p86) (not p88)) (or p42 (not p109) p21) (or (not p106) (not p72) p7) (or (not p14) p68 (not p41)) (or p56 p74 (not p46)) (or (not p20) p60 (not p12)) (or p22 (not p92) (not p84)) (or (not p108) (not p94) p119) (or (not p69) p116 (not p58)) (or (not p73) p26 (not p31)) (or p105 p68 (not p65)) (or (not p61) p74 p77) (or p91 p84 p119) (or (not p80) (not p118) (not p25)) (or p109 p100 p69) (or (not p53) (not p44) (not p112)) (or p30 (not p37) (not p3)) (or (not p40) p117 p67) (or (not p2) (not p9) p26) (or (not p70) (not p71) p9) (or (not p35) p36 (not p9)) (or p20 p59 p31) (or (not p30) (not p69) p103) (or p50 (not p0) (not p51)) (or (not p28) (not p104) (not p69)) (or (not p6) (not p26) p4) (or (not p45) p46 p15) (or p17 p114 (not p84)) (or p43 p12 p0) (or (not p95) p21 (not p47)) (or p15 p82 (not p71)) (or (not p39) (not p46) p31) (or p52 p96 (not p68)) (or (not p0) (not p32) (not p41)) (or p8 p54 (not p47)) (or (not p85) p0 p19) (or p83 p15 (not p58)) (or p72 p56 p107) (or (not p114) (not p37) (not p119)) (or p81 p33 (not p59)) (or (not p85) (not p83) (not p31)) (or p115 p57 p67) (or (not p62) p20 p2) (or (not p59) p4 p17) (or p75 (not p101) p37) (or p2 (not p0) (not p9)) (or p33 p25 (not p104)) (or p110 p63 (not p32)) (or p89 p64 (not p118)) (or (not p93) (not p110) (not p10)) (or p98 p116 (not p12)) (or (not p47) (not p49) (not p14)) (or (not p101) p20 (not p67)) (or p66 (not p14) p0) (or (not p25) p86 p117) (or p118 p65 (not p11)) (or p51 (not p7) (not p67)) (or (not p24) (not p117) (not p116)) (or p91 (not p47) p97) (or (not p15) p98 p106) (or p38 p38 (not p48)) (or p53 p84 (not p65)) (or p2 (not p108) (not p29)) (or p29 (not p2) p105) (or p42 p27 (not p116)) (or p88 p51 p70) (or (not p0) (not p5) (not p113)) (or p43 (not p65) p7) (or p5 p32 (not p89)) (or (not p19) (not p53) p55) (or p99 p85 p119) (or (not p7) p76 p74) (or p43 p81 (not p30)) (or p1 (not p67) p89) (or (not p52) p59 p4) (or p100 p78 p3) (or p8 (not p104) p21) (or (not p104) p54 (not p81)) (or p17 p6 p103) (or (not p90) (not p119) p15) (or (not p105) (not p33) p106) (or (not p74) p118 p7) (or p34 (not p102) (not p117)) (or p30 p28 (not p44)) (or (not p108) p21 p94) (or (not p94) (not p1) p76) (or p103 (not p117) p46) (or (not p97) (not p82) p109) (or (not p111) (not p107) (not p66)) (or p62 (not p1) p101) (or (not p104) (not p61) (not p50)) (or (not p6) (not p72) p114) (or (not p77) (not p49) (not p95)) (or (not p84) (not p29) p34) (or p22 (not p11) p85) (or p68 (not p40) (not p64)) (or p10 p57 (not p75)) (or p94 p3 p87) (or (not p94) (not p81) (not p57)) (or (not p109) (not p82) (not p41)) (or (not p72) (not p72) (not p118)) (or (not p66) (not p72) (not p86)) (or (not p77) p114 (not p9)) (or p50 p61 (not p25)) (or p19 (not p10) (not p115)) (or (not p56) p36 p15) (or p110 (not p46) (not p11)) (or p51 (not p50) (not p117)) (or (not p119) (not p49) p83) (or p59 p54 (not p61)) (or p49 p103 p78) (or p0 (not p79) (not p49)) (or p26 p36 p3) (or (not p84) p103 p23) (or p29 (not p82) p51) (or p86 p117 p101) (or p44 (not p91) (not p102)) (or (not p43) p15 (not p80)) (or p85 (not p103) p24) (or (not p39) p22 p4) (or p10 (not p56) p12) (or p98 p2 (not p35)) (or (not p103) p12 p86))
)
(check-sat)
(get-model)
